(set-logic QF_S)
(declare-fun _var_0xINPUT_174835_() String)
(declare-fun __woorpje_diseq_pref0_() String)
(declare-fun __woorpje_diseq_suf_l0_() String)
(declare-fun __woorpje_diseq_suf_r0_() String)
(assert (=(str.++  "cm6AfB9De3" "")(str.++ _var_0xINPUT_174835_  "")) )
(check-sat)
